
List of user-set options:

                                    Name   Value                used
                           compl_inf_tol = 1                     yes
                         constr_viol_tol = 1                     yes
                            dual_inf_tol = 1000                  yes
                           linear_solver = ma97                  yes
                              ma86_small = 1e-30                  no
                                  ma86_u = 0.0001                 no
                              ma97_order = best                  yes
                              ma97_small = 1e-30                 yes
                            ma97_switch1 = at_start              yes
                            ma97_switch2 = od_hd_reuse           yes
                                  ma97_u = 1e-06                 yes
                               ma97_umax = 0.5                   yes
                                max_iter = 1000                  yes
                    max_refinement_steps = 20                    yes
                    min_refinement_steps = 5                     yes
                                 mu_init = 1e-06                 yes
           mu_superlinear_decrease_power = 1.25                  yes
                   nlp_scaling_min_value = 1e-08                 yes
                        option_file_name = Preset_Case_479_pf.opt  yes
                             output_file = ./tmp/Preset_Case_479_pf.output  yes
                      print_user_options = yes                   yes
        required_infeasibility_reduction = 1                      no
                                     tol = 1e-08                 yes
                   warm_start_bound_frac = 1e-20                 yes
                   warm_start_bound_push = 1e-20                 yes
                   warm_start_init_point = yes                   yes
              warm_start_mult_bound_push = 1e-20                 yes
                warm_start_mult_init_max = 1e+40                 yes
             warm_start_slack_bound_frac = 1e-20                 yes
             warm_start_slack_bound_push = 1e-20                 yes

******************************************************************************
This program contains Ipopt, a library for large-scale nonlinear optimization.
 Ipopt is released as open source code under the Eclipse Public License (EPL).
         For more information visit http://projects.coin-or.org/Ipopt
******************************************************************************

This is Ipopt version 3.12.10, running with linear solver ma97.

Number of nonzeros in equality constraint Jacobian...:   123442
Number of nonzeros in inequality constraint Jacobian.:      213
Number of nonzeros in Lagrangian Hessian.............:    49069

Total number of variables............................:    31591
                     variables with only lower bounds:    12912
                variables with lower and upper bounds:    15130
                     variables with only upper bounds:        0
Total number of equality constraints.................:    31483
Total number of inequality constraints...............:       25
        inequality constraints with only lower bounds:        4
   inequality constraints with lower and upper bounds:        0
        inequality constraints with only upper bounds:       21

iter    objective    inf_pr   inf_du lg(mu)  ||d||  lg(rg) alpha_du alpha_pr  ls
   0 -5.4430038e+00 4.05e-03 1.02e+00  -6.0 0.00e+00    -  0.00e+00 0.00e+00   0
   1 -5.4463550e+00 8.51e+00 4.89e+01  -6.0 4.74e+05    -  6.60e-05 9.49e-04h  1
   2 -5.4463152e+00 8.51e+00 4.89e+01  -6.0 1.12e+03    -  1.13e-04 3.48e-05h  1
   3 -5.4433711e+00 8.50e+00 4.87e+01  -6.0 1.40e+04    -  1.12e-04 1.16e-03h  3
   4 -5.4425879e+00 8.50e+00 1.07e+02  -6.0 1.24e+03    -  1.75e-01 6.97e-04h  5
   5 -5.4422903e+00 8.49e+00 1.16e+02  -6.0 5.00e+03    -  1.22e-03 1.75e-04h  7
   6 -5.4394078e+00 8.47e+00 1.16e+02  -6.0 1.22e+03    -  2.57e-03 2.57e-03s 21
   7r-5.4394078e+00 8.47e+00 9.99e+02   0.9 0.00e+00    -  0.00e+00 0.00e+00R  1
   8r-5.4436683e+00 8.47e+00 9.99e+02   0.9 7.92e+04    -  2.80e-07 3.17e-08f  1
   9 -5.4436393e+00 8.47e+00 1.01e+02  -6.0 5.23e+02    -  1.23e-06 2.31e-05h  1
iter    objective    inf_pr   inf_du lg(mu)  ||d||  lg(rg) alpha_du alpha_pr  ls
  10 -5.4430871e+00 8.47e+00 1.01e+02  -6.0 5.10e+02    -  8.25e-04 4.21e-04h  1
  11 -5.4420537e+00 8.46e+00 1.01e+02  -6.0 3.49e+02    -  4.59e-04 6.29e-04h  1
  12 -5.4394106e+00 8.45e+00 1.84e+03  -6.0 3.36e+02    -  5.98e-04 1.59e-03h  1
  13 -5.4378579e+00 8.44e+00 1.47e+03  -6.0 3.37e+02    -  1.25e-03 9.39e-04h  1
  14 -5.4349773e+00 8.43e+00 2.59e+03  -6.0 3.18e+02    -  7.23e-05 1.38e-03h  4
  15 -5.4341526e+00 8.43e+00 1.98e+03  -6.0 3.15e+02    -  1.33e-03 3.84e-04h  6
  16 -5.4340264e+00 8.43e+00 1.66e+03  -6.0 3.14e+02    -  6.69e-03 5.90e-05h  9
  17 -5.4334821e+00 8.42e+00 1.66e+03  -6.0 3.18e+02    -  2.57e-04 2.57e-04s 17
  18 -5.4316355e+00 8.42e+00 1.65e+03  -6.0 3.18e+02    -  8.70e-04 8.70e-04s 17
  19 -5.4279849e+00 8.40e+00 1.65e+03  -6.0 3.19e+02    -  1.73e-03 1.73e-03s 17
iter    objective    inf_pr   inf_du lg(mu)  ||d||  lg(rg) alpha_du alpha_pr  ls
  20 -5.4058844e+00 8.31e+00 1.63e+03  -6.0 3.21e+02    -  1.05e-02 1.05e-02s 17
  21 -5.3946784e+00 8.27e+00 1.63e+03  -6.0 3.24e+02    -  5.43e-03 5.43e-03s 17
  22 -5.3827604e+00 8.22e+00 1.62e+03  -6.0 3.23e+02    -  5.72e-03 5.72e-03s 17
  23 -5.3693602e+00 8.17e+00 1.61e+03  -6.0 3.23e+02    -  6.48e-03 6.48e-03s 17
  24r-5.3693602e+00 8.17e+00 1.00e+03   0.9 0.00e+00    -  0.00e+00 0.00e+00R  1
  25r-5.3670892e+00 8.17e+00 6.70e+04   0.9 4.71e+04    -  1.88e-07 7.29e-08f  1
  26r-5.3652501e+00 8.16e+00 6.71e+04   0.9 3.98e+04    -  1.00e-06 4.96e-07f  1
  27r-5.3600233e+00 8.14e+00 6.69e+04   0.9 1.64e+04    -  1.72e-06 2.87e-06f  1
  28r-5.3506469e+00 8.09e+00 6.73e+04   0.9 9.62e+03    -  1.28e-05 6.54e-06f  1
  29r-5.4170080e+00 7.84e+00 6.69e+04   0.9 7.94e+03    -  1.60e-05 3.14e-05f  1
iter    objective    inf_pr   inf_du lg(mu)  ||d||  lg(rg) alpha_du alpha_pr  ls
  30 -5.4152417e+00 7.83e+00 7.07e+05  -6.0 2.62e+02    -  1.70e-02 8.03e-04h  1
  31 -5.4064608e+00 7.81e+00 2.85e+06  -6.0 2.18e+02    -  8.05e-04 3.13e-03h  1
  32 -5.3973424e+00 7.78e+00 2.84e+06  -6.0 2.20e+02    -  1.34e-02 3.28e-03h  1
  33 -5.3821203e+00 7.74e+00 2.82e+06  -6.0 2.28e+02    -  1.02e-02 5.55e-03h  2
  34 -5.3770562e+00 7.72e+00 2.82e+06  -6.0 2.44e+02    -  2.15e-02 1.97e-03h  3
  35 -5.3733004e+00 7.71e+00 2.81e+06  -6.0 2.63e+02    -  2.25e-02 1.58e-03h  4
  36 -5.3730849e+00 7.71e+00 2.81e+06  -6.0 2.72e+02    -  7.47e-02 9.31e-05h  9
  37 -5.3729953e+00 7.71e+00 2.81e+06  -6.0 2.78e+02    -  2.86e-02 3.92e-05h 12
  38 -5.1553437e+00 6.99e+00 2.54e+06  -6.0 2.79e+02    -  8.81e-02 9.51e-02h  1
  39 -5.1034994e+00 6.81e+00 2.48e+06  -6.0 2.82e+02    -  1.35e-01 2.60e-02h  1
iter    objective    inf_pr   inf_du lg(mu)  ||d||  lg(rg) alpha_du alpha_pr  ls
  40 -5.0511602e+00 6.60e+00 2.40e+06  -6.0 2.90e+02    -  1.25e-01 3.01e-02h  1
  41 -4.9859962e+00 6.29e+00 2.29e+06  -6.0 3.06e+02    -  1.48e-01 4.78e-02h  1
  42 -4.9854543e+00 6.29e+00 2.29e+06  -6.0 3.13e+02    -  3.25e-02 5.53e-04h  1
  43 -4.8525627e+00 5.63e+00 2.04e+06  -6.0 3.04e+02    -  1.13e-01 1.07e-01h  1
  44 -4.6908084e+00 4.82e+00 1.74e+06  -6.0 2.74e+02    -  1.14e-01 1.46e-01h  1
  45 -4.6415585e+00 4.58e+00 1.66e+06  -6.0 2.35e+02    -  2.15e-01 4.99e-02h  1
  46 -4.6392456e+00 4.57e+00 1.65e+06  -6.0 2.62e+02    -  6.30e-02 3.64e-03h  1
  47 -4.6250592e+00 4.53e+00 1.64e+06  -6.0 1.73e+02  -2.0 2.21e-02 8.90e-03h  1
  48 -4.5742958e+00 4.37e+00 1.58e+06  -6.0 1.79e+02  -2.5 3.91e-02 3.38e-02h  1
  49 -4.5267460e+00 4.03e+00 1.46e+06  -6.0 2.87e+02    -  9.23e-02 7.97e-02h  1
iter    objective    inf_pr   inf_du lg(mu)  ||d||  lg(rg) alpha_du alpha_pr  ls
  50 -4.4058105e+00 3.24e+00 1.17e+06  -6.0 2.66e+02    -  1.02e-01 1.96e-01h  1
  51r-4.4058105e+00 3.24e+00 1.00e+03   0.5 0.00e+00    -  0.00e+00 1.52e-07R  2
  52r-4.4166733e+00 3.24e+00 1.93e+04   0.5 1.88e+04    -  5.90e-07 9.30e-07f  1
  53 -4.4166689e+00 3.24e+00 8.98e+05  -6.0 1.60e+02    -  1.51e-02 2.14e-05h  1
  54 -4.4142657e+00 3.22e+00 2.69e+08  -6.0 1.87e+02    -  2.28e-05 6.81e-03h  1
  55 -4.4105461e+00 3.18e+00 2.66e+08  -6.0 1.88e+02    -  6.57e-03 1.11e-02h  1
  56 -4.4105356e+00 3.18e+00 2.66e+08  -6.0 1.87e+02    -  1.45e-02 3.31e-05h  1
  57 -4.4080510e+00 3.15e+00 2.63e+08  -6.0 3.52e+02    -  2.36e-03 1.04e-02h  1
  58 -4.4070706e+00 3.14e+00 2.62e+08  -6.0 3.03e+02    -  1.57e-03 3.15e-03h  1
  59 -4.3945501e+00 2.92e+00 2.44e+08  -6.0 2.71e+02    -  6.84e-03 7.00e-02h  1
iter    objective    inf_pr   inf_du lg(mu)  ||d||  lg(rg) alpha_du alpha_pr  ls
  60 -4.3867623e+00 2.70e+00 2.25e+08  -6.0 1.74e+02    -  7.56e-03 7.60e-02h  1
  61 -4.3784967e+00 2.48e+00 2.07e+08  -6.0 1.56e+02    -  8.34e-02 8.24e-02h  1
  62 -4.3691760e+00 2.20e+00 1.84e+08  -6.0 1.43e+02    -  1.98e-01 1.12e-01h  1
  63 -4.3617506e+00 1.72e+00 1.43e+08  -6.0 1.26e+02    -  2.01e-01 2.19e-01h  1
  64 -4.3715113e+00 1.45e+00 1.20e+08  -6.0 9.37e+01    -  4.86e-03 1.59e-01h  1
  65 -4.3720580e+00 1.44e+00 1.20e+08  -6.0 7.16e+01    -  2.94e-01 6.00e-03h  1
  66 -4.4185763e+00 1.10e+00 9.11e+07  -6.0 7.47e+01    -  8.95e-03 2.39e-01h  1
  67 -4.6632039e+00 4.88e-01 4.05e+07  -6.0 4.17e+01    -  2.17e-03 5.55e-01h  1
  68 -4.7477284e+00 2.43e-01 1.93e+07  -6.0 4.35e+01    -  5.40e-01 5.24e-01h  1
  69 -4.7527215e+00 2.38e-01 1.89e+07  -6.0 5.20e+01    -  2.59e-01 2.15e-02h  1
iter    objective    inf_pr   inf_du lg(mu)  ||d||  lg(rg) alpha_du alpha_pr  ls
  70 -4.7662043e+00 2.27e-01 1.80e+07  -6.0 5.52e+01    -  1.03e-01 4.70e-02h  1
  71 -4.9026717e+00 1.40e-01 1.00e+07  -6.0 5.63e+01    -  1.33e-01 4.42e-01h  1
  72 -4.9977124e+00 1.07e-01 7.21e+06  -6.0 5.77e+01    -  5.58e-01 2.81e-01h  1
  73 -5.0811323e+00 9.64e-02 6.07e+06  -6.0 7.11e+01    -  3.15e-01 1.58e-01h  1
  74 -5.2543288e+00 9.75e-02 4.41e+06  -6.0 8.26e+01    -  6.67e-01 2.74e-01h  1
  75 -5.3612922e+00 9.30e-02 3.98e+06  -6.0 1.89e+02    -  3.87e-01 9.65e-02h  1
  76 -5.6776797e+00 4.20e+00 2.03e+06  -6.0 1.10e+02    -  2.80e-02 4.90e-01h  1
  77 -5.6890762e+00 3.85e+00 1.86e+06  -6.0 1.23e+02    -  6.89e-01 8.42e-02h  1
  78 -5.7355053e+00 3.38e+00 1.60e+06  -6.0 2.07e+02    -  1.10e-01 1.41e-01h  1
  79 -5.7599807e+00 2.86e+00 1.33e+06  -6.0 2.00e+02    -  7.38e-01 1.69e-01h  1
iter    objective    inf_pr   inf_du lg(mu)  ||d||  lg(rg) alpha_du alpha_pr  ls
  80 -5.7845870e+00 2.47e+00 1.13e+06  -6.0 3.30e+02    -  2.54e-01 1.50e-01h  1
  81 -5.8280817e+00 1.78e+00 7.43e+05  -6.0 3.23e+02    -  2.15e-01 3.43e-01h  1
  82 -5.8503239e+00 1.43e+00 5.89e+05  -6.0 3.74e+02    -  5.07e-01 2.07e-01h  1
  83 -5.8743134e+00 1.29e+00 5.38e+05  -6.0 9.67e+02    -  5.79e-01 8.62e-02h  1
  84 -5.8938170e+00 1.10e+00 4.54e+05  -6.0 1.23e+03    -  5.33e-01 1.57e-01h  1
  85 -5.9513161e+00 7.65e+00 2.63e+05  -6.0 1.97e+03    -  7.76e-02 4.19e-01h  1
  86 -5.9513152e+00 7.65e+00 2.63e+05  -6.0 2.85e+02  -3.0 6.31e-05 9.72e-05h  1
  87 -5.9492902e+00 7.00e+00 2.84e+05  -6.0 4.94e+01  -3.4 9.54e-03 8.43e-02h  1
  88 -5.9438347e+00 5.27e+00 2.13e+05  -6.0 4.30e+00  -3.9 5.75e-02 2.47e-01h  1
  89 -5.9288019e+00 4.74e-01 1.97e+04  -6.0 5.72e+00  -4.4 2.52e-01 9.10e-01h  1
iter    objective    inf_pr   inf_du lg(mu)  ||d||  lg(rg) alpha_du alpha_pr  ls
  90 -5.9285148e+00 2.20e-01 9.12e+03  -6.0 2.46e+00  -4.9 4.08e-01 5.36e-01h  1
  91 -5.9347818e+00 2.85e+00 8.66e+03  -6.0 6.61e+03    -  6.82e-02 5.06e-02h  1
  92 -5.9408280e+00 2.19e+00 8.02e+03  -6.0 2.54e+03    -  2.29e-01 7.39e-02h  1
  93 -5.9509991e+00 3.00e+00 6.94e+03  -6.0 2.76e+03    -  2.07e-01 1.35e-01h  1
  94 -5.9693714e+00 4.16e+00 5.42e+03  -6.0 3.35e+03    -  1.19e-01 2.16e-01h  1
  95 -5.9786349e+00 4.09e+00 2.10e+04  -6.0 2.99e+03    -  4.79e-01 2.42e-01h  1
  96 -6.0002372e+00 4.62e+00 4.34e+03  -6.0 2.69e+03    -  6.81e-02 5.13e-01h  1
  97 -6.0212402e+00 6.22e+00 5.70e+04  -6.0 1.76e+03    -  4.84e-01 1.00e+00h  1
  98 -6.0223107e+00 5.12e+00 1.85e+05  -6.0 2.29e+02    -  6.98e-01 1.79e-01h  1
  99 -6.0252136e+00 2.90e+00 3.24e+05  -6.0 2.41e+02    -  9.83e-01 4.47e-01h  1
iter    objective    inf_pr   inf_du lg(mu)  ||d||  lg(rg) alpha_du alpha_pr  ls
 100r-6.0252136e+00 2.90e+00 1.00e+03   0.1 0.00e+00    -  0.00e+00 2.90e-07R  2
 101r-6.0357796e+00 2.89e+00 1.00e+03   0.1 1.43e+04    -  6.65e-06 1.56e-06f  1
 102 -6.0348823e+00 2.74e+00 2.46e+04  -6.0 7.23e+00    -  6.86e-02 5.33e-02h  1
 103 -6.0304443e+00 1.98e+00 4.83e+05  -6.0 4.89e+00    -  5.33e-02 2.77e-01h  1
 104 -6.0270950e+00 1.39e+00 3.39e+05  -6.0 3.61e+00    -  4.99e-01 2.98e-01h  1
 105 -6.0224011e+00 5.45e-01 1.33e+05  -6.0 3.18e+00    -  7.08e-01 6.08e-01h  1
 106 -6.0197194e+00 2.31e-04 1.59e+01  -6.0 1.75e+00    -  9.08e-01 1.00e+00h  1
 107 -6.0218739e+00 6.48e-03 2.13e+01  -6.0 9.39e+00    -  9.29e-01 1.00e+00h  1
 108 -6.0257884e+00 2.49e-02 1.51e+01  -6.0 8.10e+01    -  4.82e-01 2.93e-01h  1
 109 -6.0322417e+00 1.27e-01 2.32e+01  -6.0 9.14e+01    -  9.34e-01 5.92e-01h  1
iter    objective    inf_pr   inf_du lg(mu)  ||d||  lg(rg) alpha_du alpha_pr  ls
 110 -6.0340256e+00 5.23e-01 2.23e+01  -6.0 4.75e+02    -  4.47e-01 2.74e-01h  1
 111 -6.0369604e+00 1.32e+00 1.13e+02  -6.0 1.40e+03    -  2.96e-01 1.21e-01h  1
 112 -6.0426335e+00 4.17e-01 2.08e+03  -6.0 1.84e+02    -  7.07e-01 8.86e-01h  1
 113 -6.0457856e+00 1.97e-01 1.18e+04  -6.0 6.77e+01  -5.3 3.45e-02 1.00e+00h  1
 114 -6.0552435e+00 1.37e+00 6.58e+03  -6.0 4.65e+02    -  5.00e-01 4.64e-01h  1
 115 -6.0675706e+00 1.24e+00 2.14e+04  -6.0 2.08e+02    -  6.56e-01 1.00e+00h  1
 116 -6.0700507e+00 1.06e+00 5.86e+04  -6.0 2.11e+02    -  4.79e-01 1.77e-01h  1
 117 -6.0841627e+00 1.30e+00 5.78e+03  -6.0 2.16e+02    -  9.86e-01 1.00e+00h  1
 118 -6.0904613e+00 1.15e+00 2.85e+04  -6.0 3.07e+02    -  2.91e-01 3.16e-01h  1
 119r-6.0904613e+00 1.15e+00 1.00e+03   0.1 0.00e+00    -  0.00e+00 1.53e-07R  2
iter    objective    inf_pr   inf_du lg(mu)  ||d||  lg(rg) alpha_du alpha_pr  ls
 120r-6.1024744e+00 1.15e+00 1.00e+03   0.1 1.06e+04    -  6.97e-06 1.59e-06f  1
 121 -6.1022154e+00 1.13e+00 5.65e+05  -6.0 1.20e+01    -  3.68e-01 1.83e-02h  1
 122 -6.0956638e+00 6.70e-01 1.29e+07  -6.0 1.20e+01    -  1.83e-02 4.06e-01h  1
 123 -6.0957488e+00 6.16e-01 1.19e+07  -6.0 8.07e+00    -  4.82e-01 8.13e-02h  1
 124 -6.0874183e+00 2.44e-03 2.69e+01  -6.0 6.99e+00    -  8.32e-01 1.00e+00h  1
 125 -6.0880800e+00 6.47e-04 1.26e+01  -6.0 1.18e+00    -  9.29e-01 7.42e-01h  1
 126 -6.0881842e+00 5.79e-04 2.40e+02  -6.0 7.20e+00    -  9.74e-01 1.25e-01h  1
 127 -6.0896649e+00 2.12e-02 8.84e+00  -6.0 2.77e+01    -  9.56e-01 1.00e+00f  1
 128 -6.0922919e+00 6.05e-01 7.22e+00  -6.0 1.51e+02    -  7.99e-01 4.11e-01h  1
 129 -6.0960008e+00 3.99e-01 2.31e+00  -6.0 1.12e+02    -  9.92e-01 1.00e+00h  1
iter    objective    inf_pr   inf_du lg(mu)  ||d||  lg(rg) alpha_du alpha_pr  ls
 130 -6.0978213e+00 4.79e-01 1.49e+01  -6.0 2.36e+02    -  7.24e-02 3.56e-01h  1
 131 -6.0926323e+00 6.36e-02 7.28e+01  -6.0 3.90e+01    -  1.00e+00 1.00e+00h  1
 132 -6.0956344e+00 3.15e-02 1.86e+01  -6.0 2.76e+01    -  1.00e+00 1.00e+00h  1
 133 -6.0948481e+00 4.76e-03 1.54e+01  -6.0 1.07e+01    -  1.00e+00 1.00e+00h  1
 134 -6.0945548e+00 6.65e-04 3.63e+00  -6.0 4.01e+00    -  9.74e-01 1.00e+00h  1
 135 -6.0945701e+00 3.36e-06 1.12e-03  -6.0 2.84e-01    -  1.00e+00 1.00e+00h  1
 136 -6.0945702e+00 2.80e-10 4.85e-08  -6.0 1.99e-03    -  1.00e+00 1.00e+00h  1
 137 -6.0946448e+00 1.48e-01 5.98e+01  -7.5 1.28e+02    -  9.43e-01 7.35e-01h  1
 138 -6.0946496e+00 3.73e-02 1.30e+01  -7.5 3.48e+01    -  1.00e+00 8.49e-01h  1
 139 -6.0946488e+00 3.95e-04 1.08e-02  -7.5 4.79e+00    -  1.00e+00 1.00e+00h  1
iter    objective    inf_pr   inf_du lg(mu)  ||d||  lg(rg) alpha_du alpha_pr  ls
 140 -6.0946488e+00 2.79e-09 3.23e-09  -7.5 1.32e-02    -  1.00e+00 1.00e+00h  1
 141 -6.0946503e+00 2.04e-04 6.89e-01  -9.0 4.08e+00    -  9.26e-01 8.51e-01h  1
 142 -6.0946505e+00 6.31e-06 3.71e-01  -9.0 6.10e-01    -  9.05e-01 1.00e+00f  1
 143 -6.0946505e+00 2.85e-10 4.50e-09  -9.0 1.50e-04    -  1.00e+00 1.00e+00h  1

Number of Iterations....: 143

                                   (scaled)                 (unscaled)
Objective...............:  -4.7614457394682024e+00   -6.0946505465192988e+00
Dual infeasibility......:   4.5010400490326243e-09    5.7613312627617590e-09
Constraint violation....:   2.8494189353942684e-10    2.8494189353942684e-10
Complementarity.........:   1.2419010457738912e-09    1.5896333385905806e-09
Overall NLP error.......:   4.5010400490326243e-09    5.7613312627617590e-09


Number of objective function evaluations             = 243
Number of objective gradient evaluations             = 140
Number of equality constraint evaluations            = 243
Number of inequality constraint evaluations          = 243
Number of equality constraint Jacobian evaluations   = 149
Number of inequality constraint Jacobian evaluations = 149
Number of Lagrangian Hessian evaluations             = 143
Total CPU secs in IPOPT (w/o function evaluations)   =    283.364
Total CPU secs in NLP function evaluations           =      6.172

EXIT: Optimal Solution Found.
